RAW/XY/fspd-mid/X-n101-k25.vrp_seed-4.out
19894	46.83	124.684
