RAW/XY/fspd-mid/X-n101-k25.vrp_seed-4.sol
Route #1: 67 60 57 72 82 14 77
Route #2: 94 56 8
Route #3: 75 30 85 11 79 50
Route #4: 81 51 71 62 91
Route #5: 52 83 97
Route #6: 34 64 3 96 59 88 40 44
Route #7: 93 33 53 73
Route #8: 23 19 61 100 21
Route #9: 32 95 31 24 46 5
Route #10: 63 42 65 10 25 39 4
Route #11: 68 54 92 90 84 66 58
Route #12: 69 16 9 86 70 1
Route #13: 35 20 41 22 15 17 80
Route #14: 76 55 74 13 18 12
Route #15: 78 7 2 45 36 29 43 47 38 89 98 99
Route #16: 28 49 6 37 87 48 26 27
Cost 19894.000000